Maximize

3 x_0 + 3 x_1 + 2 x_2 + 1 x_3 + 3 x_4 + 1 x_5 + 1 x_6 + 1 x_7 + 0 x_8 + 1 x_9 + 5 x_10 + 2 x_11 + 2 x_12 + 2 x_13 + 2 x_14 + 0 x_15 + 4 x_16 + 1 x_17 + 3 x_18 + 2 x_19 + 5 x_20 + 4 x_21 + 1 x_22 + 1 x_23 + 1 x_24 + 0 x_25 + 4 x_26 + 3 x_27 + 4 x_28 + 5 x_29 + 4 x_30 + 3 x_31 + 3 x_32 + 4 x_33 + 3 x_34 + 1 x_35 + 1 x_36 + 2 x_37 + 1 x_38 + 1 x_39 + 4 x_40 + 2 x_41 + 1 x_42 + 0 x_43 + 3 x_44 + 4 x_45 + 1 x_46 + 3 x_47 + 1 x_48 + 1 x_49 + 1 x_50 + 4 x_51 + 1 x_52 + 2 x_53 + 1 x_54 + 4 x_55 + 4 x_56 + 3 x_57 + 3 x_58 + 2 x_59 + 0 x_60 + 2 x_61 + 1 x_62 + 3 x_63 + 4 x_64 + 0 x_65 + 2 x_66 + 5 x_67 + 3 x_68 + 1 x_69 + 1 x_70 + 1 x_71 + 1 x_72 + 2 x_73 + 3 x_74 + 2 x_75 + 2 x_76 + 1 x_77 + 0 x_78 + 1 x_79 + 3 x_80 + 2 x_81 + 5 x_82 + 5 x_83 + 0 x_84 + 3 x_85 + 0 x_86 + 5 x_87 + 4 x_88 + 1 x_89 + 1 x_90 + 1 x_91 + 0 x_92 + 2 x_93 + 2 x_94 + 0 x_95 + 2 x_96 + 0 x_97 + 3 x_98 + 1 x_99


Subject To

a0: 0 x_0 + 0 x_1 + 0 x_2 + 1 x_3 + 0 x_4 + 1 x_5 + 0 x_6 + 0 x_7 + 0 x_8 + 0 x_9 + 0 x_10 + 0 x_11 + 0 x_12 + 0 x_13 + 0 x_14 + 1 x_15 + 0 x_16 + 0 x_17 + 0 x_18 + 0 x_19 + 0 x_20 + 0 x_21 + 0 x_22 + 0 x_23 + 0 x_24 + 0 x_25 + 0 x_26 + 0 x_27 + 0 x_28 + 0 x_29 + 0 x_30 + 0 x_31 + 0 x_32 + 0 x_33 + 0 x_34 + 0 x_35 + 0 x_36 + 0 x_37 + 0 x_38 + 0 x_39 + 1 x_40 + 0 x_41 + 0 x_42 + 0 x_43 + 0 x_44 + 0 x_45 + 0 x_46 + 0 x_47 + 0 x_48 + 0 x_49 + 0 x_50 + 0 x_51 + 1 x_52 + 0 x_53 + 0 x_54 + 0 x_55 + 1 x_56 + 1 x_57 + 0 x_58 + 0 x_59 + 0 x_60 + 0 x_61 + 0 x_62 + 0 x_63 + 0 x_64 + 0 x_65 + 0 x_66 + 0 x_67 + 0 x_68 + 0 x_69 + 1 x_70 + 0 x_71 + 0 x_72 + 0 x_73 + 0 x_74 + 0 x_75 + 0 x_76 + 0 x_77 + 0 x_78 + 0 x_79 + 0 x_80 + 0 x_81 + 0 x_82 + 0 x_83 + 0 x_84 + 0 x_85 + 0 x_86 + 1 x_87 + 0 x_88 + 0 x_89 + 0 x_90 + 0 x_91 + 0 x_92 + 0 x_93 + 0 x_94 + 0 x_95 + 0 x_96 + 0 x_97 + 0 x_98 + 0 x_99 >= 1
a1: 0 x_0 + 0 x_1 + 0 x_2 + 0 x_3 + 1 x_4 + 0 x_5 + 1 x_6 + 0 x_7 + 0 x_8 + 0 x_9 + 0 x_10 + 0 x_11 + 0 x_12 + 0 x_13 + 0 x_14 + 0 x_15 + 0 x_16 + 0 x_17 + 0 x_18 + 0 x_19 + 0 x_20 + 0 x_21 + 0 x_22 + 0 x_23 + 0 x_24 + 0 x_25 + 0 x_26 + 1 x_27 + 0 x_28 + 0 x_29 + 0 x_30 + 0 x_31 + 0 x_32 + 0 x_33 + 0 x_34 + 1 x_35 + 0 x_36 + 0 x_37 + 0 x_38 + 0 x_39 + 0 x_40 + 1 x_41 + 0 x_42 + 0 x_43 + 1 x_44 + 0 x_45 + 0 x_46 + 0 x_47 + 0 x_48 + 0 x_49 + 1 x_50 + 0 x_51 + 0 x_52 + 0 x_53 + 0 x_54 + 0 x_55 + 0 x_56 + 0 x_57 + 0 x_58 + 0 x_59 + 0 x_60 + 0 x_61 + 0 x_62 + 0 x_63 + 0 x_64 + 0 x_65 + 0 x_66 + 0 x_67 + 0 x_68 + 0 x_69 + 0 x_70 + 0 x_71 + 0 x_72 + 1 x_73 + 0 x_74 + 0 x_75 + 1 x_76 + 0 x_77 + 0 x_78 + 0 x_79 + 0 x_80 + 0 x_81 + 0 x_82 + 0 x_83 + 1 x_84 + 0 x_85 + 0 x_86 + 0 x_87 + 0 x_88 + 0 x_89 + 1 x_90 + 0 x_91 + 0 x_92 + 0 x_93 + 0 x_94 + 0 x_95 + 0 x_96 + 0 x_97 + 0 x_98 + 0 x_99 >= 1
a2: 0 x_0 + 0 x_1 + 0 x_2 + 0 x_3 + 1 x_4 + 0 x_5 + 0 x_6 + 0 x_7 + 1 x_8 + 0 x_9 + 0 x_10 + 0 x_11 + 0 x_12 + 0 x_13 + 0 x_14 + 0 x_15 + 0 x_16 + 0 x_17 + 0 x_18 + 0 x_19 + 0 x_20 + 0 x_21 + 0 x_22 + 1 x_23 + 0 x_24 + 0 x_25 + 0 x_26 + 0 x_27 + 0 x_28 + 0 x_29 + 0 x_30 + 0 x_31 + 0 x_32 + 0 x_33 + 0 x_34 + 0 x_35 + 1 x_36 + 0 x_37 + 0 x_38 + 0 x_39 + 0 x_40 + 1 x_41 + 0 x_42 + 0 x_43 + 0 x_44 + 0 x_45 + 0 x_46 + 0 x_47 + 1 x_48 + 1 x_49 + 1 x_50 + 0 x_51 + 0 x_52 + 0 x_53 + 0 x_54 + 0 x_55 + 1 x_56 + 0 x_57 + 0 x_58 + 0 x_59 + 0 x_60 + 0 x_61 + 0 x_62 + 0 x_63 + 0 x_64 + 1 x_65 + 1 x_66 + 1 x_67 + 0 x_68 + 0 x_69 + 0 x_70 + 1 x_71 + 0 x_72 + 0 x_73 + 0 x_74 + 0 x_75 + 0 x_76 + 0 x_77 + 0 x_78 + 0 x_79 + 0 x_80 + 0 x_81 + 0 x_82 + 1 x_83 + 1 x_84 + 0 x_85 + 0 x_86 + 0 x_87 + 0 x_88 + 1 x_89 + 0 x_90 + 0 x_91 + 0 x_92 + 0 x_93 + 0 x_94 + 0 x_95 + 0 x_96 + 0 x_97 + 0 x_98 + 0 x_99 >= 1
a3: 0 x_0 + 0 x_1 + 0 x_2 + 0 x_3 + 0 x_4 + 1 x_5 + 0 x_6 + 0 x_7 + 0 x_8 + 0 x_9 + 0 x_10 + 0 x_11 + 0 x_12 + 0 x_13 + 0 x_14 + 0 x_15 + 0 x_16 + 0 x_17 + 0 x_18 + 0 x_19 + 0 x_20 + 1 x_21 + 0 x_22 + 0 x_23 + 1 x_24 + 0 x_25 + 0 x_26 + 0 x_27 + 0 x_28 + 0 x_29 + 0 x_30 + 0 x_31 + 1 x_32 + 1 x_33 + 0 x_34 + 0 x_35 + 0 x_36 + 0 x_37 + 0 x_38 + 0 x_39 + 0 x_40 + 0 x_41 + 0 x_42 + 0 x_43 + 0 x_44 + 0 x_45 + 0 x_46 + 0 x_47 + 1 x_48 + 0 x_49 + 0 x_50 + 0 x_51 + 0 x_52 + 0 x_53 + 0 x_54 + 1 x_55 + 0 x_56 + 1 x_57 + 0 x_58 + 0 x_59 + 0 x_60 + 0 x_61 + 0 x_62 + 0 x_63 + 0 x_64 + 1 x_65 + 0 x_66 + 0 x_67 + 0 x_68 + 0 x_69 + 0 x_70 + 1 x_71 + 0 x_72 + 0 x_73 + 0 x_74 + 0 x_75 + 0 x_76 + 0 x_77 + 0 x_78 + 0 x_79 + 1 x_80 + 0 x_81 + 0 x_82 + 0 x_83 + 0 x_84 + 0 x_85 + 0 x_86 + 0 x_87 + 1 x_88 + 0 x_89 + 0 x_90 + 0 x_91 + 0 x_92 + 0 x_93 + 0 x_94 + 0 x_95 + 1 x_96 + 0 x_97 + 0 x_98 + 0 x_99 >= 1
a4: 0 x_0 + 0 x_1 + 1 x_2 + 0 x_3 + 0 x_4 + 0 x_5 + 0 x_6 + 0 x_7 + 0 x_8 + 0 x_9 + 0 x_10 + 1 x_11 + 0 x_12 + 0 x_13 + 0 x_14 + 0 x_15 + 0 x_16 + 0 x_17 + 1 x_18 + 0 x_19 + 0 x_20 + 0 x_21 + 1 x_22 + 0 x_23 + 0 x_24 + 0 x_25 + 0 x_26 + 0 x_27 + 0 x_28 + 0 x_29 + 1 x_30 + 0 x_31 + 0 x_32 + 0 x_33 + 0 x_34 + 0 x_35 + 0 x_36 + 0 x_37 + 0 x_38 + 0 x_39 + 0 x_40 + 0 x_41 + 1 x_42 + 0 x_43 + 0 x_44 + 0 x_45 + 0 x_46 + 0 x_47 + 0 x_48 + 0 x_49 + 0 x_50 + 0 x_51 + 0 x_52 + 0 x_53 + 0 x_54 + 0 x_55 + 0 x_56 + 0 x_57 + 0 x_58 + 0 x_59 + 0 x_60 + 0 x_61 + 0 x_62 + 0 x_63 + 1 x_64 + 0 x_65 + 1 x_66 + 0 x_67 + 0 x_68 + 0 x_69 + 0 x_70 + 0 x_71 + 0 x_72 + 0 x_73 + 0 x_74 + 0 x_75 + 0 x_76 + 0 x_77 + 0 x_78 + 0 x_79 + 0 x_80 + 0 x_81 + 0 x_82 + 0 x_83 + 0 x_84 + 0 x_85 + 0 x_86 + 0 x_87 + 0 x_88 + 0 x_89 + 0 x_90 + 0 x_91 + 0 x_92 + 0 x_93 + 0 x_94 + 0 x_95 + 1 x_96 + 0 x_97 + 0 x_98 + 0 x_99 >= 1
a5: 0 x_0 + 0 x_1 + 0 x_2 + 1 x_3 + 0 x_4 + 0 x_5 + 0 x_6 + 0 x_7 + 0 x_8 + 0 x_9 + 0 x_10 + 1 x_11 + 0 x_12 + 0 x_13 + 0 x_14 + 0 x_15 + 0 x_16 + 0 x_17 + 0 x_18 + 0 x_19 + 0 x_20 + 0 x_21 + 0 x_22 + 0 x_23 + 0 x_24 + 0 x_25 + 0 x_26 + 1 x_27 + 0 x_28 + 0 x_29 + 0 x_30 + 0 x_31 + 0 x_32 + 0 x_33 + 0 x_34 + 0 x_35 + 0 x_36 + 0 x_37 + 0 x_38 + 0 x_39 + 0 x_40 + 0 x_41 + 1 x_42 + 0 x_43 + 0 x_44 + 0 x_45 + 0 x_46 + 0 x_47 + 0 x_48 + 0 x_49 + 0 x_50 + 0 x_51 + 0 x_52 + 0 x_53 + 0 x_54 + 0 x_55 + 0 x_56 + 0 x_57 + 1 x_58 + 0 x_59 + 0 x_60 + 0 x_61 + 0 x_62 + 0 x_63 + 0 x_64 + 0 x_65 + 0 x_66 + 0 x_67 + 1 x_68 + 0 x_69 + 1 x_70 + 0 x_71 + 0 x_72 + 0 x_73 + 0 x_74 + 1 x_75 + 0 x_76 + 0 x_77 + 0 x_78 + 0 x_79 + 0 x_80 + 1 x_81 + 0 x_82 + 0 x_83 + 0 x_84 + 0 x_85 + 0 x_86 + 1 x_87 + 1 x_88 + 0 x_89 + 0 x_90 + 0 x_91 + 0 x_92 + 0 x_93 + 0 x_94 + 0 x_95 + 0 x_96 + 0 x_97 + 1 x_98 + 0 x_99 >= 1
a6: 0 x_0 + 0 x_1 + 1 x_2 + 0 x_3 + 0 x_4 + 0 x_5 + 1 x_6 + 0 x_7 + 0 x_8 + 0 x_9 + 0 x_10 + 0 x_11 + 0 x_12 + 0 x_13 + 0 x_14 + 0 x_15 + 0 x_16 + 0 x_17 + 0 x_18 + 0 x_19 + 0 x_20 + 1 x_21 + 0 x_22 + 1 x_23 + 0 x_24 + 0 x_25 + 0 x_26 + 0 x_27 + 0 x_28 + 1 x_29 + 0 x_30 + 1 x_31 + 0 x_32 + 0 x_33 + 0 x_34 + 0 x_35 + 0 x_36 + 1 x_37 + 0 x_38 + 0 x_39 + 0 x_40 + 0 x_41 + 0 x_42 + 0 x_43 + 0 x_44 + 0 x_45 + 0 x_46 + 0 x_47 + 0 x_48 + 0 x_49 + 0 x_50 + 0 x_51 + 0 x_52 + 0 x_53 + 0 x_54 + 0 x_55 + 0 x_56 + 0 x_57 + 0 x_58 + 0 x_59 + 1 x_60 + 0 x_61 + 1 x_62 + 0 x_63 + 0 x_64 + 0 x_65 + 0 x_66 + 0 x_67 + 0 x_68 + 0 x_69 + 0 x_70 + 0 x_71 + 0 x_72 + 0 x_73 + 0 x_74 + 0 x_75 + 0 x_76 + 0 x_77 + 0 x_78 + 0 x_79 + 0 x_80 + 0 x_81 + 0 x_82 + 0 x_83 + 0 x_84 + 0 x_85 + 0 x_86 + 0 x_87 + 0 x_88 + 0 x_89 + 0 x_90 + 0 x_91 + 0 x_92 + 0 x_93 + 0 x_94 + 1 x_95 + 0 x_96 + 0 x_97 + 0 x_98 + 0 x_99 >= 1
a7: 1 x_0 + 0 x_1 + 0 x_2 + 0 x_3 + 0 x_4 + 0 x_5 + 0 x_6 + 0 x_7 + 0 x_8 + 0 x_9 + 0 x_10 + 0 x_11 + 0 x_12 + 0 x_13 + 0 x_14 + 0 x_15 + 0 x_16 + 0 x_17 + 0 x_18 + 1 x_19 + 0 x_20 + 0 x_21 + 1 x_22 + 0 x_23 + 0 x_24 + 0 x_25 + 0 x_26 + 0 x_27 + 0 x_28 + 0 x_29 + 0 x_30 + 0 x_31 + 0 x_32 + 0 x_33 + 1 x_34 + 1 x_35 + 0 x_36 + 1 x_37 + 0 x_38 + 0 x_39 + 0 x_40 + 1 x_41 + 0 x_42 + 0 x_43 + 0 x_44 + 0 x_45 + 0 x_46 + 0 x_47 + 0 x_48 + 0 x_49 + 0 x_50 + 0 x_51 + 0 x_52 + 1 x_53 + 0 x_54 + 0 x_55 + 0 x_56 + 0 x_57 + 0 x_58 + 0 x_59 + 0 x_60 + 0 x_61 + 0 x_62 + 0 x_63 + 0 x_64 + 0 x_65 + 1 x_66 + 0 x_67 + 1 x_68 + 0 x_69 + 1 x_70 + 0 x_71 + 0 x_72 + 1 x_73 + 0 x_74 + 0 x_75 + 0 x_76 + 0 x_77 + 1 x_78 + 0 x_79 + 1 x_80 + 1 x_81 + 0 x_82 + 0 x_83 + 0 x_84 + 0 x_85 + 0 x_86 + 0 x_87 + 0 x_88 + 0 x_89 + 0 x_90 + 0 x_91 + 0 x_92 + 0 x_93 + 0 x_94 + 0 x_95 + 0 x_96 + 1 x_97 + 0 x_98 + 0 x_99 >= 1
a8: 0 x_0 + 0 x_1 + 0 x_2 + 0 x_3 + 1 x_4 + 0 x_5 + 0 x_6 + 0 x_7 + 0 x_8 + 0 x_9 + 1 x_10 + 0 x_11 + 0 x_12 + 0 x_13 + 0 x_14 + 0 x_15 + 0 x_16 + 1 x_17 + 0 x_18 + 0 x_19 + 0 x_20 + 0 x_21 + 0 x_22 + 0 x_23 + 0 x_24 + 0 x_25 + 0 x_26 + 0 x_27 + 0 x_28 + 0 x_29 + 0 x_30 + 0 x_31 + 0 x_32 + 0 x_33 + 0 x_34 + 0 x_35 + 0 x_36 + 1 x_37 + 0 x_38 + 0 x_39 + 1 x_40 + 0 x_41 + 0 x_42 + 0 x_43 + 0 x_44 + 0 x_45 + 0 x_46 + 0 x_47 + 0 x_48 + 0 x_49 + 0 x_50 + 0 x_51 + 1 x_52 + 0 x_53 + 1 x_54 + 0 x_55 + 0 x_56 + 0 x_57 + 0 x_58 + 0 x_59 + 0 x_60 + 1 x_61 + 0 x_62 + 1 x_63 + 1 x_64 + 0 x_65 + 0 x_66 + 0 x_67 + 0 x_68 + 1 x_69 + 0 x_70 + 0 x_71 + 0 x_72 + 0 x_73 + 0 x_74 + 0 x_75 + 0 x_76 + 1 x_77 + 0 x_78 + 0 x_79 + 0 x_80 + 0 x_81 + 0 x_82 + 0 x_83 + 0 x_84 + 0 x_85 + 0 x_86 + 0 x_87 + 0 x_88 + 0 x_89 + 0 x_90 + 0 x_91 + 0 x_92 + 0 x_93 + 0 x_94 + 0 x_95 + 0 x_96 + 0 x_97 + 0 x_98 + 1 x_99 >= 1
a9: 1 x_0 + 0 x_1 + 0 x_2 + 0 x_3 + 0 x_4 + 0 x_5 + 0 x_6 + 0 x_7 + 0 x_8 + 0 x_9 + 0 x_10 + 0 x_11 + 0 x_12 + 0 x_13 + 0 x_14 + 0 x_15 + 0 x_16 + 0 x_17 + 0 x_18 + 0 x_19 + 0 x_20 + 0 x_21 + 0 x_22 + 0 x_23 + 0 x_24 + 0 x_25 + 0 x_26 + 0 x_27 + 0 x_28 + 0 x_29 + 0 x_30 + 1 x_31 + 0 x_32 + 0 x_33 + 0 x_34 + 1 x_35 + 1 x_36 + 0 x_37 + 0 x_38 + 1 x_39 + 0 x_40 + 0 x_41 + 0 x_42 + 0 x_43 + 0 x_44 + 0 x_45 + 0 x_46 + 0 x_47 + 0 x_48 + 0 x_49 + 0 x_50 + 0 x_51 + 0 x_52 + 1 x_53 + 0 x_54 + 0 x_55 + 0 x_56 + 0 x_57 + 1 x_58 + 1 x_59 + 1 x_60 + 0 x_61 + 0 x_62 + 0 x_63 + 0 x_64 + 0 x_65 + 0 x_66 + 0 x_67 + 1 x_68 + 0 x_69 + 0 x_70 + 0 x_71 + 0 x_72 + 0 x_73 + 0 x_74 + 0 x_75 + 1 x_76 + 0 x_77 + 0 x_78 + 0 x_79 + 0 x_80 + 0 x_81 + 0 x_82 + 0 x_83 + 0 x_84 + 1 x_85 + 0 x_86 + 0 x_87 + 0 x_88 + 1 x_89 + 0 x_90 + 0 x_91 + 0 x_92 + 0 x_93 + 1 x_94 + 1 x_95 + 1 x_96 + 0 x_97 + 0 x_98 + 0 x_99 >= 1
b0: 1308.4 x_0 + 1343.2 x_1 + 1300.9 x_2 + 1367.0 x_3 + 1230.9 x_4 + 1347.8 x_5 + 1983.6 x_6 + 1712.8 x_7 + 1436.5 x_8 + 1225.2 x_9 + 1516.6 x_10 + 1851.4 x_11 + 1537.7 x_12 + 1012.0 x_13 + 1218.3 x_14 + 1332.9 x_15 + 1434.4 x_16 + 1623.7 x_17 + 1433.5 x_18 + 1463.1 x_19 + 1901.8 x_20 + 1360.0 x_21 + 1099.9 x_22 + 1313.4 x_23 + 1250.8 x_24 + 1238.3 x_25 + 1414.4 x_26 + 1737.9 x_27 + 1054.9 x_28 + 1317.8 x_29 + 1899.2 x_30 + 1992.1 x_31 + 1189.5 x_32 + 1461.9 x_33 + 1342.3 x_34 + 1164.5 x_35 + 1488.2 x_36 + 1935.3 x_37 + 1171.3 x_38 + 1991.3 x_39 + 1312.0 x_40 + 1403.5 x_41 + 1872.7 x_42 + 1551.7 x_43 + 1046.1 x_44 + 1170.5 x_45 + 1518.3 x_46 + 1327.4 x_47 + 1888.7 x_48 + 1939.0 x_49 + 1830.8 x_50 + 1877.1 x_51 + 1438.3 x_52 + 1519.1 x_53 + 1063.9 x_54 + 1264.6 x_55 + 1555.8 x_56 + 1084.7 x_57 + 1624.5 x_58 + 1710.8 x_59 + 1312.8 x_60 + 1485.3 x_61 + 1418.9 x_62 + 1221.9 x_63 + 1087.0 x_64 + 1666.9 x_65 + 1177.5 x_66 + 1112.9 x_67 + 1163.2 x_68 + 1261.7 x_69 + 1025.1 x_70 + 1864.6 x_71 + 1618.2 x_72 + 1364.5 x_73 + 1290.2 x_74 + 1049.8 x_75 + 1356.2 x_76 + 1283.2 x_77 + 1511.4 x_78 + 1435.3 x_79 + 1048.0 x_80 + 1835.0 x_81 + 1047.6 x_82 + 1295.1 x_83 + 1355.4 x_84 + 1168.3 x_85 + 1584.5 x_86 + 1349.1 x_87 + 1761.4 x_88 + 1287.3 x_89 + 1984.9 x_90 + 1353.7 x_91 + 1206.0 x_92 + 1827.7 x_93 + 1109.9 x_94 + 1256.6 x_95 + 1739.0 x_96 + 1651.0 x_97 + 1437.6 x_98 + 1928.6 x_99 <= 49268
c0: x_0 + x_43 <= 1
c1: x_0 + x_82 <= 1
c2: x_1 + x_42 <= 1
c3: x_1 + x_51 <= 1
c4: x_2 + x_12 <= 1
c5: x_2 + x_35 <= 1
c6: x_2 + x_48 <= 1
c7: x_2 + x_49 <= 1
c8: x_3 + x_54 <= 1
c9: x_3 + x_81 <= 1
c10: x_4 + x_19 <= 1
c11: x_4 + x_37 <= 1
c12: x_4 + x_71 <= 1
c13: x_4 + x_87 <= 1
c14: x_5 + x_17 <= 1
c15: x_5 + x_31 <= 1
c16: x_6 + x_47 <= 1
c17: x_6 + x_64 <= 1
c18: x_6 + x_86 <= 1
c19: x_7 + x_30 <= 1
c20: x_7 + x_96 <= 1
c21: x_8 + x_84 <= 1
c22: x_9 + x_39 <= 1
c23: x_10 + x_57 <= 1
c24: x_10 + x_96 <= 1
c25: x_11 + x_60 <= 1
c26: x_11 + x_75 <= 1
c27: x_12 + x_2 <= 1
c28: x_12 + x_22 <= 1
c29: x_13 + x_55 <= 1
c30: x_14 + x_28 <= 1
c31: x_14 + x_39 <= 1
c32: x_14 + x_91 <= 1
c33: x_15 + x_39 <= 1
c34: x_16 + x_58 <= 1
c35: x_17 + x_5 <= 1
c36: x_18 + x_65 <= 1
c37: x_18 + x_84 <= 1
c38: x_18 + x_93 <= 1
c39: x_19 + x_4 <= 1
c40: x_20 + x_81 <= 1
c41: x_21 + x_35 <= 1
c42: x_21 + x_75 <= 1
c43: x_22 + x_12 <= 1
c44: x_23 + x_62 <= 1
c45: x_23 + x_89 <= 1
c46: x_23 + x_98 <= 1
c47: x_24 + x_90 <= 1
c48: x_25 + x_63 <= 1
c49: x_26 + x_36 <= 1
c50: x_26 + x_46 <= 1
c51: x_26 + x_48 <= 1
c52: x_27 + x_72 <= 1
c53: x_27 + x_77 <= 1
c54: x_28 + x_14 <= 1
c55: x_28 + x_58 <= 1
c56: x_28 + x_68 <= 1
c57: x_29 + x_41 <= 1
c58: x_29 + x_94 <= 1
c59: x_30 + x_7 <= 1
c60: x_30 + x_53 <= 1
c61: x_30 + x_85 <= 1
c62: x_31 + x_5 <= 1
c63: x_31 + x_78 <= 1
c64: x_31 + x_92 <= 1
c65: x_32 + x_92 <= 1
c66: x_33 + x_82 <= 1
c67: x_34 + x_49 <= 1
c68: x_34 + x_69 <= 1
c69: x_34 + x_74 <= 1
c70: x_35 + x_2 <= 1
c71: x_35 + x_21 <= 1
c72: x_36 + x_26 <= 1
c73: x_36 + x_90 <= 1
c74: x_37 + x_4 <= 1
c75: x_37 + x_56 <= 1
c76: x_37 + x_95 <= 1
c77: x_38 + x_81 <= 1
c78: x_39 + x_9 <= 1
c79: x_39 + x_14 <= 1
c80: x_39 + x_15 <= 1
c81: x_40 + x_78 <= 1
c82: x_41 + x_29 <= 1
c83: x_41 + x_48 <= 1
c84: x_41 + x_79 <= 1
c85: x_42 + x_1 <= 1
c86: x_42 + x_89 <= 1
c87: x_43 + x_0 <= 1
c88: x_43 + x_87 <= 1
c89: x_44 + x_97 <= 1
c90: x_45 + x_62 <= 1
c91: x_45 + x_97 <= 1
c92: x_46 + x_26 <= 1
c93: x_46 + x_62 <= 1
c94: x_47 + x_6 <= 1
c95: x_47 + x_58 <= 1
c96: x_47 + x_78 <= 1
c97: x_47 + x_86 <= 1
c98: x_48 + x_2 <= 1
c99: x_48 + x_26 <= 1
c100: x_48 + x_41 <= 1
c101: x_48 + x_88 <= 1
c102: x_49 + x_2 <= 1
c103: x_49 + x_34 <= 1
c104: x_49 + x_82 <= 1
c105: x_49 + x_83 <= 1
c106: x_50 + x_60 <= 1
c107: x_51 + x_1 <= 1
c108: x_52 + x_66 <= 1
c109: x_53 + x_30 <= 1
c110: x_53 + x_75 <= 1
c111: x_54 + x_3 <= 1
c112: x_55 + x_13 <= 1
c113: x_55 + x_80 <= 1
c114: x_56 + x_37 <= 1
c115: x_56 + x_79 <= 1
c116: x_57 + x_10 <= 1
c117: x_58 + x_16 <= 1
c118: x_58 + x_28 <= 1
c119: x_58 + x_47 <= 1
c120: x_59 + x_60 <= 1
c121: x_60 + x_11 <= 1
c122: x_60 + x_50 <= 1
c123: x_60 + x_59 <= 1
c124: x_60 + x_76 <= 1
c125: x_61 + x_74 <= 1
c126: x_61 + x_77 <= 1
c127: x_62 + x_23 <= 1
c128: x_62 + x_45 <= 1
c129: x_62 + x_46 <= 1
c130: x_63 + x_25 <= 1
c131: x_63 + x_80 <= 1
c132: x_63 + x_84 <= 1
c133: x_64 + x_6 <= 1
c134: x_64 + x_70 <= 1
c135: x_65 + x_18 <= 1
c136: x_66 + x_52 <= 1
c137: x_66 + x_98 <= 1
c138: x_67 + x_70 <= 1
c139: x_68 + x_28 <= 1
c140: x_69 + x_34 <= 1
c141: x_69 + x_81 <= 1
c142: x_70 + x_64 <= 1
c143: x_70 + x_67 <= 1
c144: x_71 + x_4 <= 1
c145: x_72 + x_27 <= 1
c146: x_73 + x_85 <= 1
c147: x_74 + x_34 <= 1
c148: x_74 + x_61 <= 1
c149: x_75 + x_11 <= 1
c150: x_75 + x_21 <= 1
c151: x_75 + x_53 <= 1
c152: x_76 + x_60 <= 1
c153: x_77 + x_27 <= 1
c154: x_77 + x_61 <= 1
c155: x_77 + x_80 <= 1
c156: x_78 + x_31 <= 1
c157: x_78 + x_40 <= 1
c158: x_78 + x_47 <= 1
c159: x_79 + x_41 <= 1
c160: x_79 + x_56 <= 1
c161: x_80 + x_55 <= 1
c162: x_80 + x_63 <= 1
c163: x_80 + x_77 <= 1
c164: x_81 + x_3 <= 1
c165: x_81 + x_20 <= 1
c166: x_81 + x_38 <= 1
c167: x_81 + x_69 <= 1
c168: x_82 + x_0 <= 1
c169: x_82 + x_33 <= 1
c170: x_82 + x_49 <= 1
c171: x_83 + x_49 <= 1
c172: x_84 + x_8 <= 1
c173: x_84 + x_18 <= 1
c174: x_84 + x_63 <= 1
c175: x_85 + x_30 <= 1
c176: x_85 + x_73 <= 1
c177: x_86 + x_6 <= 1
c178: x_86 + x_47 <= 1
c179: x_87 + x_4 <= 1
c180: x_87 + x_43 <= 1
c181: x_88 + x_48 <= 1
c182: x_88 + x_99 <= 1
c183: x_89 + x_23 <= 1
c184: x_89 + x_42 <= 1
c185: x_90 + x_24 <= 1
c186: x_90 + x_36 <= 1
c187: x_91 + x_14 <= 1
c188: x_92 + x_31 <= 1
c189: x_92 + x_32 <= 1
c190: x_93 + x_18 <= 1
c191: x_94 + x_29 <= 1
c192: x_95 + x_37 <= 1
c193: x_96 + x_7 <= 1
c194: x_96 + x_10 <= 1
c195: x_97 + x_44 <= 1
c196: x_97 + x_45 <= 1
c197: x_98 + x_23 <= 1
c198: x_98 + x_66 <= 1
c199: x_99 + x_88 <= 1




Binary

x_0 x_1 x_2 x_3 x_4 x_5 x_6 x_7 x_8 x_9 x_10 x_11 x_12 x_13 x_14 x_15 x_16 x_17 x_18 x_19 x_20 x_21 x_22 x_23 x_24 x_25 x_26 x_27 x_28 x_29 x_30 x_31 x_32 x_33 x_34 x_35 x_36 x_37 x_38 x_39 x_40 x_41 x_42 x_43 x_44 x_45 x_46 x_47 x_48 x_49 x_50 x_51 x_52 x_53 x_54 x_55 x_56 x_57 x_58 x_59 x_60 x_61 x_62 x_63 x_64 x_65 x_66 x_67 x_68 x_69 x_70 x_71 x_72 x_73 x_74 x_75 x_76 x_77 x_78 x_79 x_80 x_81 x_82 x_83 x_84 x_85 x_86 x_87 x_88 x_89 x_90 x_91 x_92 x_93 x_94 x_95 x_96 x_97 x_98 x_99

 


End
